Problem:    
Rows:       260
Columns:    89 (72 integer, 72 binary)
Non-zeros:  812
Status:     INTEGER OPTIMAL
Objective:  value = 47.740288 (MINimum)

   No.   Row name        Activity     Lower bound   Upper bound
------ ------------    ------------- ------------- -------------
     1 r.5                   1047.74             0               
     2 r.6                  -989.976      -990.242               
     3 r.7                   47.7403             0               
     4 r.8                   14.8032       -974.81               
     5 r.9                   47.7403             0               
     6 r.10                  31.1396      -990.204               
     7 r.11                  1047.74             0               
     8 r.12                 -970.147      -974.856               
     9 r.13                  47.7403             0               
    10 r.14                 -999.421      -999.687               
    11 r.15                  1047.74             0               
    12 r.16                 -995.291      -999.272               
    13 r.17                  47.7403             0               
    14 r.18                  31.1396      -999.522               
    15 r.19                  1047.74             0               
    16 r.20                  -968.86      -998.713               
    17 r.21                  1047.74             0               
    18 r.22                 -985.197      -995.221               
    19 r.23                  47.7403             0               
    20 r.24                 -987.663      -987.929               
    21 r.25                  1047.74             0               
    22 r.26                 -999.734      -999.734               
    23 r.27                  47.7403             0               
    24 r.28                    0.266      -999.314               
    25 r.29                  1047.74             0               
    26 r.30                  -952.26      -983.399               
    27 r.31                  47.7403             0               
    28 r.32                  47.7403      -959.566               
    29 r.33                  1047.74             0               
    30 r.34                  -968.86      -983.664               
    31 r.35                  47.7403             0               
    32 r.36                  47.7403      -960.722               
    33 r.37                        1             1             = 
    34 r.38                        1             1             = 
    35 r.39                        1             1             = 
    36 r.40                        1             1             = 
    37 r.41                        1             1             = 
    38 r.42                        1             1             = 
    39 r.43                        1             1             = 
    40 r.44                        1             1             = 
    41 r.45                     1001             2               
    42 r.46                    -1001         -1001               
    43 r.47                  2021.12      -990.204               
    44 r.48                     1001             2               
    45 r.49                    -1001         -1001               
    46 r.50                  2015.05      -974.856               
    47 r.51                     1001             2               
    48 r.52                    -1001         -1001               
    49 r.53                  990.555      -999.687               
    50 r.54                     1001             2               
    51 r.55                    -1001         -1001               
    52 r.56                  1989.91      -999.272               
    53 r.57                     1001             2               
    54 r.58                    -1001         -1001               
    55 r.59                  2021.12      -999.522               
    56 r.60                     1001             2               
    57 r.61                    -1001         -1001               
    58 r.62                  2016.34      -998.713               
    59 r.63                        2             2               
    60 r.64                       -2         -1001               
    61 r.65                 -995.221      -995.221               
    62 r.66                     1000             2               
    63 r.67                    -1000         -1001               
    64 r.68                  997.534      -987.929               
    65 r.69                 -990.242      -990.242               
    66 r.70                  14.5372       -974.81               
    67 r.71                 -990.242      -990.242               
    68 r.72                  14.5372       -974.81               
    69 r.73                 -962.284      -983.399               
    70 r.74                   37.716      -959.566               
    71 r.75                 -967.063      -983.399               
    72 r.76                   32.937      -959.566               
    73 r.77                 -978.885      -983.664               
    74 r.78                   37.716      -960.722               
    75 r.79                 -983.664      -983.664               
    76 r.80                   32.937      -960.722               
    77 r.81                     1001             2               
    78 r.82                    -1001         -1001               
    79 r.83                  1978.88        9.7583               
    80 r.84                     1001             2               
    81 r.85                    -1001         -1001               
    82 r.86                  1984.95       25.1898               
    83 r.87                     1000             2               
    84 r.88                    -1000         -1001               
    85 r.89                   969.44      -999.687               
    86 r.90                        2             2               
    87 r.91                       -2         -1001               
    88 r.92                 -25.1436      -999.272               
    89 r.93                     1000             2               
    90 r.94                    -1000         -1001               
    91 r.95                     2000      -999.522               
    92 r.96                        2             2               
    93 r.97                       -2         -1001               
    94 r.98                 -998.713      -998.713               
    95 r.99                     1001             2               
    96 r.100                   -1001         -1001               
    97 r.101                 1983.66      -995.221               
    98 r.102                    1001             2               
    99 r.103                   -1001         -1001               
   100 r.104                 982.484      -987.929               
   101 r.105                 30.8736      -990.204               
   102 r.106                -970.413      -974.856               
   103 r.107                 30.8736      -990.204               
   104 r.108                -970.413      -974.856               
   105 r.109                -983.399      -983.399               
   106 r.110                 16.6006      -959.566               
   107 r.111                -982.113      -983.399               
   108 r.112                 17.8874      -959.566               
   109 r.113                    1001             2               
   110 r.114                   -1001         -1001               
   111 r.115                    2000      -983.664               
   112 r.116                    1001             2               
   113 r.117                   -1001         -1001               
   114 r.118                 2017.89      -960.722               
   115 r.119                    1001             2               
   116 r.120                   -1001         -1001               
   117 r.121                 3009.45        9.7583               
   118 r.122                    1001             2               
   119 r.123                   -1001         -1001               
   120 r.124                 2010.09       25.1898               
   121 r.125                    1000             2               
   122 r.126                   -1000         -1001               
   123 r.127                 3030.56       9.79582               
   124 r.128                       2             2               
   125 r.129                      -2         -1001               
   126 r.130                 25.1436       25.1436               
   127 r.131                    1000             2               
   128 r.132                   -1000         -1001               
   129 r.133                 3030.56      -999.522               
   130 r.134                       2             2               
   131 r.135                      -2         -1001               
   132 r.136                 -973.57      -998.713               
   133 r.137                    1001             2               
   134 r.138                   -1001         -1001               
   135 r.139                 3014.22      -995.221               
   136 r.140                    1001             2               
   137 r.141                   -1001         -1001               
   138 r.142                 1007.63      -987.929               
   139 r.143                -999.687      -999.687               
   140 r.144                -995.557      -999.272               
   141 r.145                -999.687      -999.687               
   142 r.146                -995.557      -999.272               
   143 r.147                  47.161      -983.399               
   144 r.148                 1047.16      -959.566               
   145 r.149                -956.969      -983.399               
   146 r.150                  43.031      -959.566               
   147 r.151                 30.5604      -983.664               
   148 r.152                 1047.16      -960.722               
   149 r.153                 -973.57      -983.664               
   150 r.154                  43.031      -960.722               
   151 r.155                    1001             2               
   152 r.156                   -1001         -1001               
   153 r.157                 1978.88        9.7583               
   154 r.158                    1001             2               
   155 r.159                   -1001         -1001               
   156 r.160                 1983.66       25.1898               
   157 r.161                    1000             2               
   158 r.162                   -1000         -1001               
   159 r.163                    2000       9.79582               
   160 r.164                       2             2               
   161 r.165                      -2         -1001               
   162 r.166                 998.713       25.1436               
   163 r.167                    1000             2               
   164 r.168                   -1000         -1001               
   165 r.169                  969.44      0.313278               
   166 r.170                       2             2               
   167 r.171                      -2         -1001               
   168 r.172                  973.57      0.727982               
   169 r.173                    1001             2               
   170 r.174                   -1001         -1001               
   171 r.175                 1983.66      -995.221               
   172 r.176                    1001             2               
   173 r.177                   -1001         -1001               
   174 r.178                 981.197      -987.929               
   175 r.179                 30.8736      -999.522               
   176 r.180                -969.126      -998.713               
   177 r.181                 30.8736      -999.522               
   178 r.182                -969.126      -998.713               
   179 r.183                -983.399      -983.399               
   180 r.184                 16.6006      -959.566               
   181 r.185                -983.399      -983.399               
   182 r.186                 16.6006      -959.566               
   183 r.187                    1001             2               
   184 r.188                   -1001         -1001               
   185 r.189                    2000      -983.664               
   186 r.190                    1001             2               
   187 r.191                   -1001         -1001               
   188 r.192                  2016.6      -960.722               
   189 r.193                       2             2               
   190 r.194                      -2         -1001               
   191 r.195                 995.221        9.7583               
   192 r.196                    1000             2               
   193 r.197                   -1000         -1001               
   194 r.198                 3002.47       25.1898               
   195 r.199                    1001             2               
   196 r.200                   -1001         -1001               
   197 r.201                 2016.34       9.79582               
   198 r.202                    1001             2               
   199 r.203                   -1001         -1001               
   200 r.204                 3017.52       25.1436               
   201 r.205                    1001             2               
   202 r.206                   -1001         -1001               
   203 r.207                 985.776      0.313278               
   204 r.208                    1001             2               
   205 r.209                   -1001         -1001               
   206 r.210                 2992.37      0.727982               
   207 r.211                    1001             2               
   208 r.212                   -1001         -1001               
   209 r.213                 2016.34        0.4778               
   210 r.214                    1001             2               
   211 r.215                   -1001         -1001               
   212 r.216                  3018.8        1.2868               
   213 r.217                -985.463      -995.221               
   214 r.218                -987.929      -987.929               
   215 r.219                -985.463      -995.221               
   216 r.220                -987.929      -987.929               
   217 r.221                       2             2               
   218 r.222                      -2         -1001               
   219 r.223                -967.063      -983.399               
   220 r.224                    1000             2               
   221 r.225                   -1000         -1001               
   222 r.226                  3035.4      -959.566               
   223 r.227                -983.664      -983.664               
   224 r.228                  32.937      -960.722               
   225 r.229                 18.8029      -983.664               
   226 r.230                  1035.4      -960.722               
   227 r.231                -952.526      -983.399               
   228 r.232                 47.4743      -959.566               
   229 r.233                -952.526      -983.399               
   230 r.234                 47.4743      -959.566               
   231 r.235                       2             2               
   232 r.236                      -2         -1001               
   233 r.237                 967.063       4.77894               
   234 r.238                    1000             2               
   235 r.239                   -1000         -1001               
   236 r.240                 964.596       12.0708               
   237 r.241                       2             2               
   238 r.242                      -2         -1001               
   239 r.243                -16.6006      -983.664               
   240 r.244                    1000             2               
   241 r.245                   -1000         -1001               
   242 r.246                    2000      -960.722               
   243 r.247                    1001             2               
   244 r.248                   -1001         -1001               
   245 r.249                    2000       9.79582               
   246 r.250                    1001             2               
   247 r.251                   -1001         -1001               
   248 r.252                 1982.11       25.1436               
   249 r.253                    1001             2               
   250 r.254                   -1001         -1001               
   251 r.255                    2000        0.4778               
   252 r.256                    1001             2               
   253 r.257                   -1001         -1001               
   254 r.258                  1983.4        1.2868               
   255 r.259                       2             2               
   256 r.260                      -2         -1001               
   257 r.261                 16.6006       16.6006               
   258 r.262                    1000             2               
   259 r.263                   -1000         -1001               
   260 r.264                    2000        40.434               

   No. Column name       Activity     Lower bound   Upper bound
------ ------------    ------------- ------------- -------------
     1 tt                    47.7403             0               
     2 s_1_1        *              1             0             1 
     3 t_1_1                  37.716             0               
     4 s_1_8        *              1             0             1 
     5 s_1_7        *              1             0             1 
     6 s_2_1        *              0             0             1 
     7 t_2_1                  32.937             0               
     8 s_2_8        *              0             0             1 
     9 s_2_7        *              0             0             1 
    10 s_1_2        *              0             0             1 
    11 t_1_2                 16.6006             0               
    12 s_2_2        *              1             0             1 
    13 t_2_2                 17.8874             0               
    14 s_1_3        *              0             0             1 
    15 t_1_3                 1047.16             0               
    16 s_2_3        *              1             0             1 
    17 t_2_3                  43.031             0               
    18 s_1_4        *              0             0             1 
    19 t_1_4                 16.6006             0               
    20 s_2_4        *              1             0             1 
    21 t_2_4                 16.6006             0               
    22 s_1_5        *              1             0             1 
    23 t_1_5                  32.937             0               
    24 s_2_5        *              0             0             1 
    25 t_2_5                  1035.4             0               
    26 s_1_6        *              1             0             1 
    27 t_1_6                 47.4743             0               
    28 s_2_6        *              0             0             1 
    29 t_2_6                 47.4743             0               
    30 t_1_7                       0             0               
    31 t_2_7                       0             0               
    32 t_1_8                 16.6006             0               
    33 t_2_8                       0             0               
    34 r_1_1_2      *              1             0             1 
    35 u_1_1_2      *              0             0             1 
    36 r_2_1_2      *              1             0             1 
    37 u_2_1_2      *              0             0             1 
    38 r_1_1_3      *              1             0             1 
    39 u_1_1_3      *              0             0             1 
    40 r_2_1_3      *              1             0             1 
    41 u_2_1_3      *              0             0             1 
    42 r_1_1_4      *              1             0             1 
    43 u_1_1_4      *              0             0             1 
    44 r_2_1_4      *              1             0             1 
    45 u_2_1_4      *              0             0             1 
    46 r_1_1_5      *              0             0             1 
    47 u_1_1_5      *              1             0             1 
    48 r_2_1_5      *              1             0             1 
    49 u_2_1_5      *              0             0             1 
    50 r_1_2_3      *              1             0             1 
    51 u_1_2_3      *              0             0             1 
    52 r_2_2_3      *              0             0             1 
    53 u_2_2_3      *              0             0             1 
    54 r_1_2_4      *              1             0             1 
    55 u_1_2_4      *              0             0             1 
    56 r_2_2_4      *              0             0             1 
    57 u_2_2_4      *              1             0             1 
    58 r_1_2_5      *              1             0             1 
    59 u_1_2_5      *              0             0             1 
    60 r_2_2_5      *              1             0             1 
    61 u_2_2_5      *              0             0             1 
    62 r_1_2_8      *              1             0             1 
    63 u_1_2_8      *              0             0             1 
    64 r_2_2_8      *              1             0             1 
    65 u_2_2_8      *              0             0             1 
    66 r_1_3_4      *              1             0             1 
    67 u_1_3_4      *              0             0             1 
    68 r_2_3_4      *              0             0             1 
    69 u_2_3_4      *              1             0             1 
    70 r_1_3_5      *              1             0             1 
    71 u_1_3_5      *              0             0             1 
    72 r_2_3_5      *              1             0             1 
    73 u_2_3_5      *              0             0             1 
    74 r_1_4_5      *              1             0             1 
    75 u_1_4_5      *              0             0             1 
    76 r_2_4_5      *              1             0             1 
    77 u_2_4_5      *              0             0             1 
    78 r_1_4_8      *              1             0             1 
    79 u_1_4_8      *              0             0             1 
    80 r_2_4_8      *              1             0             1 
    81 u_2_4_8      *              0             0             1 
    82 r_1_5_7      *              0             0             1 
    83 u_1_5_7      *              1             0             1 
    84 r_2_5_7      *              1             0             1 
    85 u_2_5_7      *              0             0             1 
    86 r_1_7_8      *              0             0             1 
    87 u_1_7_8      *              0             0             1 
    88 r_2_7_8      *              1             0             1 
    89 u_2_7_8      *              0             0             1 

Integer feasibility conditions:

KKT.PE: max.abs.err = 4.55e-13 on row 212
        max.rel.err = 1.09e-16 on row 12
        High quality

KKT.PB: max.abs.err = 0.00e+00 on row 0
        max.rel.err = 0.00e+00 on row 0
        High quality

End of output
